/* Objective function */
min: 12x1 + 10y1 + 14x2 +12y2 +16x3 +14y3 + 18x4 +16y4 + 2z1 +2z2 +2z3 +2z4; 
/* Constraints */

x1 - 200b1 >= 0;
x2 - 200b2 >= 0;
x3 - 200b3 >= 0;
x4 - 200b4 >= 0;

0<=x1<=200;
0<=x2<=200;
0<=x3<=200;
0<=x4<=200;

y1 >= 100000b1;
y2 >= 100000b2;
y3 >= 100000b3;
y4 >= 100000b4;


x1 + y1 -z1 =150;
z1 + x2+ y2 -z2 =200;
z2 + x3 +y3 - z3 =250;
z3 + x4 +y4 - z4 =150;

bin b1,b2,b3,b4;
 
